
Gurobi 9.0.1 (mac64, Python) logging started Tue Feb 11 22:33:12 2020

Using license file /Users/patrickherbert/gurobi.lic
Set parameter LogFile to value gurobi.log
Academic license - for non-commercial use only
